p tw 72 82
1 2
2 13
3 35
4 5
5 6
5 7
6 69
7 8
8 9
9 10
10 11
11 12
11 44
12 14
13 24
14 15
15 16
16 17
17 18
18 19
19 20
19 31
20 21
21 22
21 28
22 23
23 25
24 35
25 26
26 27
27 28
28 29
29 30
30 17
31 32
32 33
33 34
34 36
34 44
35 46
36 37
37 38
37 44
38 39
39 40
40 41
41 42
42 43
43 44
44 45
45 47
46 57
47 48
48 49
48 51
49 50
50 66
51 52
52 53
53 54
54 55
55 56
55 66
56 58
57 68
57 4
58 59
59 60
59 63
60 61
61 62
62 66
63 64
64 65
65 53
66 67
67 69
68 71
69 70
71 72
71 4
72 3
